(set-logic QF_LRA)
(declare-fun X0 () Real )
(declare-fun Y0 () Real )
(declare-fun X1 () Real )
(declare-fun Y1 () Real )
(declare-fun X2 () Real )
(declare-fun Y2 () Real )
(declare-fun X3 () Real )
(declare-fun Y3 () Real )
(declare-fun X4 () Real )
(declare-fun Y4 () Real )
(declare-fun X5 () Real )
(declare-fun Y5 () Real )
(declare-fun X6 () Real )
(declare-fun Y6 () Real )
(declare-fun X7 () Real )
(declare-fun Y7 () Real )
(declare-fun X8 () Real )
(declare-fun Y8 () Real )
(declare-fun X9 () Real )
(declare-fun Y9 () Real )
(declare-fun X10 () Real )
(declare-fun Y10 () Real )
(declare-fun X11 () Real )
(declare-fun Y11 () Real )
(declare-fun X12 () Real )
(declare-fun Y12 () Real )
(declare-fun X13 () Real )
(declare-fun Y13 () Real )
(declare-fun X14 () Real )
(declare-fun Y14 () Real )
(declare-fun X15 () Real )
(declare-fun Y15 () Real )
(declare-fun X16 () Real )
(declare-fun Y16 () Real )
(declare-fun X17 () Real )
(declare-fun Y17 () Real )
(declare-fun Z () Real )
(declare-fun k () Real )
(assert (let
(( $goal (>= Z k) ))
(let
((
$phi ( and 
( or ( <= ( + X0 31 ) X1 )  ( <= ( + X1 65 ) X0 )  ( <= ( + Y0 2 ) Y1 )  ( <= ( + Y1 82 ) Y0 )  )
( or ( <= ( + X0 31 ) X2 )  ( <= ( + X2 80 ) X0 )  ( <= ( + Y0 2 ) Y2 )  ( <= ( + Y2 31 ) Y0 )  )
( or ( <= ( + X0 31 ) X3 )  ( <= ( + X3 74 ) X0 )  ( <= ( + Y0 2 ) Y3 )  ( <= ( + Y3 14 ) Y0 )  )
( or ( <= ( + X0 31 ) X4 )  ( <= ( + X4 68 ) X0 )  ( <= ( + Y0 2 ) Y4 )  ( <= ( + Y4 96 ) Y0 )  )
( or ( <= ( + X0 31 ) X5 )  ( <= ( + X5 60 ) X0 )  ( <= ( + Y0 2 ) Y5 )  ( <= ( + Y5 24 ) Y0 )  )
( or ( <= ( + X0 31 ) X6 )  ( <= ( + X6 61 ) X0 )  ( <= ( + Y0 2 ) Y6 )  ( <= ( + Y6 3 ) Y0 )  )
( or ( <= ( + X0 31 ) X7 )  ( <= ( + X7 12 ) X0 )  ( <= ( + Y0 2 ) Y7 )  ( <= ( + Y7 53 ) Y0 )  )
( or ( <= ( + X0 31 ) X8 )  ( <= ( + X8 5 ) X0 )  ( <= ( + Y0 2 ) Y8 )  ( <= ( + Y8 83 ) Y0 )  )
( or ( <= ( + X0 31 ) X9 )  ( <= ( + X9 26 ) X0 )  ( <= ( + Y0 2 ) Y9 )  ( <= ( + Y9 20 ) Y0 )  )
( or ( <= ( + X0 31 ) X10 )  ( <= ( + X10 44 ) X0 )  ( <= ( + Y0 2 ) Y10 )  ( <= ( + Y10 48 ) Y0 )  )
( or ( <= ( + X0 31 ) X11 )  ( <= ( + X11 75 ) X0 )  ( <= ( + Y0 2 ) Y11 )  ( <= ( + Y11 27 ) Y0 )  )
( or ( <= ( + X0 31 ) X12 )  ( <= ( + X12 81 ) X0 )  ( <= ( + Y0 2 ) Y12 )  ( <= ( + Y12 51 ) Y0 )  )
( or ( <= ( + X0 31 ) X13 )  ( <= ( + X13 13 ) X0 )  ( <= ( + Y0 2 ) Y13 )  ( <= ( + Y13 78 ) Y0 )  )
( or ( <= ( + X0 31 ) X14 )  ( <= ( + X14 59 ) X0 )  ( <= ( + Y0 2 ) Y14 )  ( <= ( + Y14 91 ) Y0 )  )
( or ( <= ( + X0 31 ) X15 )  ( <= ( + X15 46 ) X0 )  ( <= ( + Y0 2 ) Y15 )  ( <= ( + Y15 82 ) Y0 )  )
( or ( <= ( + X0 31 ) X16 )  ( <= ( + X16 69 ) X0 )  ( <= ( + Y0 2 ) Y16 )  ( <= ( + Y16 3 ) Y0 )  )
( or ( <= ( + X0 31 ) X17 )  ( <= ( + X17 28 ) X0 )  ( <= ( + Y0 2 ) Y17 )  ( <= ( + Y17 11 ) Y0 )  )
( or ( <= ( + X1 65 ) X2 )  ( <= ( + X2 80 ) X1 )  ( <= ( + Y1 82 ) Y2 )  ( <= ( + Y2 31 ) Y1 )  )
( or ( <= ( + X1 65 ) X3 )  ( <= ( + X3 74 ) X1 )  ( <= ( + Y1 82 ) Y3 )  ( <= ( + Y3 14 ) Y1 )  )
( or ( <= ( + X1 65 ) X4 )  ( <= ( + X4 68 ) X1 )  ( <= ( + Y1 82 ) Y4 )  ( <= ( + Y4 96 ) Y1 )  )
( or ( <= ( + X1 65 ) X5 )  ( <= ( + X5 60 ) X1 )  ( <= ( + Y1 82 ) Y5 )  ( <= ( + Y5 24 ) Y1 )  )
( or ( <= ( + X1 65 ) X6 )  ( <= ( + X6 61 ) X1 )  ( <= ( + Y1 82 ) Y6 )  ( <= ( + Y6 3 ) Y1 )  )
( or ( <= ( + X1 65 ) X7 )  ( <= ( + X7 12 ) X1 )  ( <= ( + Y1 82 ) Y7 )  ( <= ( + Y7 53 ) Y1 )  )
( or ( <= ( + X1 65 ) X8 )  ( <= ( + X8 5 ) X1 )  ( <= ( + Y1 82 ) Y8 )  ( <= ( + Y8 83 ) Y1 )  )
( or ( <= ( + X1 65 ) X9 )  ( <= ( + X9 26 ) X1 )  ( <= ( + Y1 82 ) Y9 )  ( <= ( + Y9 20 ) Y1 )  )
( or ( <= ( + X1 65 ) X10 )  ( <= ( + X10 44 ) X1 )  ( <= ( + Y1 82 ) Y10 )  ( <= ( + Y10 48 ) Y1 )  )
( or ( <= ( + X1 65 ) X11 )  ( <= ( + X11 75 ) X1 )  ( <= ( + Y1 82 ) Y11 )  ( <= ( + Y11 27 ) Y1 )  )
( or ( <= ( + X1 65 ) X12 )  ( <= ( + X12 81 ) X1 )  ( <= ( + Y1 82 ) Y12 )  ( <= ( + Y12 51 ) Y1 )  )
( or ( <= ( + X1 65 ) X13 )  ( <= ( + X13 13 ) X1 )  ( <= ( + Y1 82 ) Y13 )  ( <= ( + Y13 78 ) Y1 )  )
( or ( <= ( + X1 65 ) X14 )  ( <= ( + X14 59 ) X1 )  ( <= ( + Y1 82 ) Y14 )  ( <= ( + Y14 91 ) Y1 )  )
( or ( <= ( + X1 65 ) X15 )  ( <= ( + X15 46 ) X1 )  ( <= ( + Y1 82 ) Y15 )  ( <= ( + Y15 82 ) Y1 )  )
( or ( <= ( + X1 65 ) X16 )  ( <= ( + X16 69 ) X1 )  ( <= ( + Y1 82 ) Y16 )  ( <= ( + Y16 3 ) Y1 )  )
( or ( <= ( + X1 65 ) X17 )  ( <= ( + X17 28 ) X1 )  ( <= ( + Y1 82 ) Y17 )  ( <= ( + Y17 11 ) Y1 )  )
( or ( <= ( + X2 80 ) X3 )  ( <= ( + X3 74 ) X2 )  ( <= ( + Y2 31 ) Y3 )  ( <= ( + Y3 14 ) Y2 )  )
( or ( <= ( + X2 80 ) X4 )  ( <= ( + X4 68 ) X2 )  ( <= ( + Y2 31 ) Y4 )  ( <= ( + Y4 96 ) Y2 )  )
( or ( <= ( + X2 80 ) X5 )  ( <= ( + X5 60 ) X2 )  ( <= ( + Y2 31 ) Y5 )  ( <= ( + Y5 24 ) Y2 )  )
( or ( <= ( + X2 80 ) X6 )  ( <= ( + X6 61 ) X2 )  ( <= ( + Y2 31 ) Y6 )  ( <= ( + Y6 3 ) Y2 )  )
( or ( <= ( + X2 80 ) X7 )  ( <= ( + X7 12 ) X2 )  ( <= ( + Y2 31 ) Y7 )  ( <= ( + Y7 53 ) Y2 )  )
( or ( <= ( + X2 80 ) X8 )  ( <= ( + X8 5 ) X2 )  ( <= ( + Y2 31 ) Y8 )  ( <= ( + Y8 83 ) Y2 )  )
( or ( <= ( + X2 80 ) X9 )  ( <= ( + X9 26 ) X2 )  ( <= ( + Y2 31 ) Y9 )  ( <= ( + Y9 20 ) Y2 )  )
( or ( <= ( + X2 80 ) X10 )  ( <= ( + X10 44 ) X2 )  ( <= ( + Y2 31 ) Y10 )  ( <= ( + Y10 48 ) Y2 )  )
( or ( <= ( + X2 80 ) X11 )  ( <= ( + X11 75 ) X2 )  ( <= ( + Y2 31 ) Y11 )  ( <= ( + Y11 27 ) Y2 )  )
( or ( <= ( + X2 80 ) X12 )  ( <= ( + X12 81 ) X2 )  ( <= ( + Y2 31 ) Y12 )  ( <= ( + Y12 51 ) Y2 )  )
( or ( <= ( + X2 80 ) X13 )  ( <= ( + X13 13 ) X2 )  ( <= ( + Y2 31 ) Y13 )  ( <= ( + Y13 78 ) Y2 )  )
( or ( <= ( + X2 80 ) X14 )  ( <= ( + X14 59 ) X2 )  ( <= ( + Y2 31 ) Y14 )  ( <= ( + Y14 91 ) Y2 )  )
( or ( <= ( + X2 80 ) X15 )  ( <= ( + X15 46 ) X2 )  ( <= ( + Y2 31 ) Y15 )  ( <= ( + Y15 82 ) Y2 )  )
( or ( <= ( + X2 80 ) X16 )  ( <= ( + X16 69 ) X2 )  ( <= ( + Y2 31 ) Y16 )  ( <= ( + Y16 3 ) Y2 )  )
( or ( <= ( + X2 80 ) X17 )  ( <= ( + X17 28 ) X2 )  ( <= ( + Y2 31 ) Y17 )  ( <= ( + Y17 11 ) Y2 )  )
( or ( <= ( + X3 74 ) X4 )  ( <= ( + X4 68 ) X3 )  ( <= ( + Y3 14 ) Y4 )  ( <= ( + Y4 96 ) Y3 )  )
( or ( <= ( + X3 74 ) X5 )  ( <= ( + X5 60 ) X3 )  ( <= ( + Y3 14 ) Y5 )  ( <= ( + Y5 24 ) Y3 )  )
( or ( <= ( + X3 74 ) X6 )  ( <= ( + X6 61 ) X3 )  ( <= ( + Y3 14 ) Y6 )  ( <= ( + Y6 3 ) Y3 )  )
( or ( <= ( + X3 74 ) X7 )  ( <= ( + X7 12 ) X3 )  ( <= ( + Y3 14 ) Y7 )  ( <= ( + Y7 53 ) Y3 )  )
( or ( <= ( + X3 74 ) X8 )  ( <= ( + X8 5 ) X3 )  ( <= ( + Y3 14 ) Y8 )  ( <= ( + Y8 83 ) Y3 )  )
( or ( <= ( + X3 74 ) X9 )  ( <= ( + X9 26 ) X3 )  ( <= ( + Y3 14 ) Y9 )  ( <= ( + Y9 20 ) Y3 )  )
( or ( <= ( + X3 74 ) X10 )  ( <= ( + X10 44 ) X3 )  ( <= ( + Y3 14 ) Y10 )  ( <= ( + Y10 48 ) Y3 )  )
( or ( <= ( + X3 74 ) X11 )  ( <= ( + X11 75 ) X3 )  ( <= ( + Y3 14 ) Y11 )  ( <= ( + Y11 27 ) Y3 )  )
( or ( <= ( + X3 74 ) X12 )  ( <= ( + X12 81 ) X3 )  ( <= ( + Y3 14 ) Y12 )  ( <= ( + Y12 51 ) Y3 )  )
( or ( <= ( + X3 74 ) X13 )  ( <= ( + X13 13 ) X3 )  ( <= ( + Y3 14 ) Y13 )  ( <= ( + Y13 78 ) Y3 )  )
( or ( <= ( + X3 74 ) X14 )  ( <= ( + X14 59 ) X3 )  ( <= ( + Y3 14 ) Y14 )  ( <= ( + Y14 91 ) Y3 )  )
( or ( <= ( + X3 74 ) X15 )  ( <= ( + X15 46 ) X3 )  ( <= ( + Y3 14 ) Y15 )  ( <= ( + Y15 82 ) Y3 )  )
( or ( <= ( + X3 74 ) X16 )  ( <= ( + X16 69 ) X3 )  ( <= ( + Y3 14 ) Y16 )  ( <= ( + Y16 3 ) Y3 )  )
( or ( <= ( + X3 74 ) X17 )  ( <= ( + X17 28 ) X3 )  ( <= ( + Y3 14 ) Y17 )  ( <= ( + Y17 11 ) Y3 )  )
( or ( <= ( + X4 68 ) X5 )  ( <= ( + X5 60 ) X4 )  ( <= ( + Y4 96 ) Y5 )  ( <= ( + Y5 24 ) Y4 )  )
( or ( <= ( + X4 68 ) X6 )  ( <= ( + X6 61 ) X4 )  ( <= ( + Y4 96 ) Y6 )  ( <= ( + Y6 3 ) Y4 )  )
( or ( <= ( + X4 68 ) X7 )  ( <= ( + X7 12 ) X4 )  ( <= ( + Y4 96 ) Y7 )  ( <= ( + Y7 53 ) Y4 )  )
( or ( <= ( + X4 68 ) X8 )  ( <= ( + X8 5 ) X4 )  ( <= ( + Y4 96 ) Y8 )  ( <= ( + Y8 83 ) Y4 )  )
( or ( <= ( + X4 68 ) X9 )  ( <= ( + X9 26 ) X4 )  ( <= ( + Y4 96 ) Y9 )  ( <= ( + Y9 20 ) Y4 )  )
( or ( <= ( + X4 68 ) X10 )  ( <= ( + X10 44 ) X4 )  ( <= ( + Y4 96 ) Y10 )  ( <= ( + Y10 48 ) Y4 )  )
( or ( <= ( + X4 68 ) X11 )  ( <= ( + X11 75 ) X4 )  ( <= ( + Y4 96 ) Y11 )  ( <= ( + Y11 27 ) Y4 )  )
( or ( <= ( + X4 68 ) X12 )  ( <= ( + X12 81 ) X4 )  ( <= ( + Y4 96 ) Y12 )  ( <= ( + Y12 51 ) Y4 )  )
( or ( <= ( + X4 68 ) X13 )  ( <= ( + X13 13 ) X4 )  ( <= ( + Y4 96 ) Y13 )  ( <= ( + Y13 78 ) Y4 )  )
( or ( <= ( + X4 68 ) X14 )  ( <= ( + X14 59 ) X4 )  ( <= ( + Y4 96 ) Y14 )  ( <= ( + Y14 91 ) Y4 )  )
( or ( <= ( + X4 68 ) X15 )  ( <= ( + X15 46 ) X4 )  ( <= ( + Y4 96 ) Y15 )  ( <= ( + Y15 82 ) Y4 )  )
( or ( <= ( + X4 68 ) X16 )  ( <= ( + X16 69 ) X4 )  ( <= ( + Y4 96 ) Y16 )  ( <= ( + Y16 3 ) Y4 )  )
( or ( <= ( + X4 68 ) X17 )  ( <= ( + X17 28 ) X4 )  ( <= ( + Y4 96 ) Y17 )  ( <= ( + Y17 11 ) Y4 )  )
( or ( <= ( + X5 60 ) X6 )  ( <= ( + X6 61 ) X5 )  ( <= ( + Y5 24 ) Y6 )  ( <= ( + Y6 3 ) Y5 )  )
( or ( <= ( + X5 60 ) X7 )  ( <= ( + X7 12 ) X5 )  ( <= ( + Y5 24 ) Y7 )  ( <= ( + Y7 53 ) Y5 )  )
( or ( <= ( + X5 60 ) X8 )  ( <= ( + X8 5 ) X5 )  ( <= ( + Y5 24 ) Y8 )  ( <= ( + Y8 83 ) Y5 )  )
( or ( <= ( + X5 60 ) X9 )  ( <= ( + X9 26 ) X5 )  ( <= ( + Y5 24 ) Y9 )  ( <= ( + Y9 20 ) Y5 )  )
( or ( <= ( + X5 60 ) X10 )  ( <= ( + X10 44 ) X5 )  ( <= ( + Y5 24 ) Y10 )  ( <= ( + Y10 48 ) Y5 )  )
( or ( <= ( + X5 60 ) X11 )  ( <= ( + X11 75 ) X5 )  ( <= ( + Y5 24 ) Y11 )  ( <= ( + Y11 27 ) Y5 )  )
( or ( <= ( + X5 60 ) X12 )  ( <= ( + X12 81 ) X5 )  ( <= ( + Y5 24 ) Y12 )  ( <= ( + Y12 51 ) Y5 )  )
( or ( <= ( + X5 60 ) X13 )  ( <= ( + X13 13 ) X5 )  ( <= ( + Y5 24 ) Y13 )  ( <= ( + Y13 78 ) Y5 )  )
( or ( <= ( + X5 60 ) X14 )  ( <= ( + X14 59 ) X5 )  ( <= ( + Y5 24 ) Y14 )  ( <= ( + Y14 91 ) Y5 )  )
( or ( <= ( + X5 60 ) X15 )  ( <= ( + X15 46 ) X5 )  ( <= ( + Y5 24 ) Y15 )  ( <= ( + Y15 82 ) Y5 )  )
( or ( <= ( + X5 60 ) X16 )  ( <= ( + X16 69 ) X5 )  ( <= ( + Y5 24 ) Y16 )  ( <= ( + Y16 3 ) Y5 )  )
( or ( <= ( + X5 60 ) X17 )  ( <= ( + X17 28 ) X5 )  ( <= ( + Y5 24 ) Y17 )  ( <= ( + Y17 11 ) Y5 )  )
( or ( <= ( + X6 61 ) X7 )  ( <= ( + X7 12 ) X6 )  ( <= ( + Y6 3 ) Y7 )  ( <= ( + Y7 53 ) Y6 )  )
( or ( <= ( + X6 61 ) X8 )  ( <= ( + X8 5 ) X6 )  ( <= ( + Y6 3 ) Y8 )  ( <= ( + Y8 83 ) Y6 )  )
( or ( <= ( + X6 61 ) X9 )  ( <= ( + X9 26 ) X6 )  ( <= ( + Y6 3 ) Y9 )  ( <= ( + Y9 20 ) Y6 )  )
( or ( <= ( + X6 61 ) X10 )  ( <= ( + X10 44 ) X6 )  ( <= ( + Y6 3 ) Y10 )  ( <= ( + Y10 48 ) Y6 )  )
( or ( <= ( + X6 61 ) X11 )  ( <= ( + X11 75 ) X6 )  ( <= ( + Y6 3 ) Y11 )  ( <= ( + Y11 27 ) Y6 )  )
( or ( <= ( + X6 61 ) X12 )  ( <= ( + X12 81 ) X6 )  ( <= ( + Y6 3 ) Y12 )  ( <= ( + Y12 51 ) Y6 )  )
( or ( <= ( + X6 61 ) X13 )  ( <= ( + X13 13 ) X6 )  ( <= ( + Y6 3 ) Y13 )  ( <= ( + Y13 78 ) Y6 )  )
( or ( <= ( + X6 61 ) X14 )  ( <= ( + X14 59 ) X6 )  ( <= ( + Y6 3 ) Y14 )  ( <= ( + Y14 91 ) Y6 )  )
( or ( <= ( + X6 61 ) X15 )  ( <= ( + X15 46 ) X6 )  ( <= ( + Y6 3 ) Y15 )  ( <= ( + Y15 82 ) Y6 )  )
( or ( <= ( + X6 61 ) X16 )  ( <= ( + X16 69 ) X6 )  ( <= ( + Y6 3 ) Y16 )  ( <= ( + Y16 3 ) Y6 )  )
( or ( <= ( + X6 61 ) X17 )  ( <= ( + X17 28 ) X6 )  ( <= ( + Y6 3 ) Y17 )  ( <= ( + Y17 11 ) Y6 )  )
( or ( <= ( + X7 12 ) X8 )  ( <= ( + X8 5 ) X7 )  ( <= ( + Y7 53 ) Y8 )  ( <= ( + Y8 83 ) Y7 )  )
( or ( <= ( + X7 12 ) X9 )  ( <= ( + X9 26 ) X7 )  ( <= ( + Y7 53 ) Y9 )  ( <= ( + Y9 20 ) Y7 )  )
( or ( <= ( + X7 12 ) X10 )  ( <= ( + X10 44 ) X7 )  ( <= ( + Y7 53 ) Y10 )  ( <= ( + Y10 48 ) Y7 )  )
( or ( <= ( + X7 12 ) X11 )  ( <= ( + X11 75 ) X7 )  ( <= ( + Y7 53 ) Y11 )  ( <= ( + Y11 27 ) Y7 )  )
( or ( <= ( + X7 12 ) X12 )  ( <= ( + X12 81 ) X7 )  ( <= ( + Y7 53 ) Y12 )  ( <= ( + Y12 51 ) Y7 )  )
( or ( <= ( + X7 12 ) X13 )  ( <= ( + X13 13 ) X7 )  ( <= ( + Y7 53 ) Y13 )  ( <= ( + Y13 78 ) Y7 )  )
( or ( <= ( + X7 12 ) X14 )  ( <= ( + X14 59 ) X7 )  ( <= ( + Y7 53 ) Y14 )  ( <= ( + Y14 91 ) Y7 )  )
( or ( <= ( + X7 12 ) X15 )  ( <= ( + X15 46 ) X7 )  ( <= ( + Y7 53 ) Y15 )  ( <= ( + Y15 82 ) Y7 )  )
( or ( <= ( + X7 12 ) X16 )  ( <= ( + X16 69 ) X7 )  ( <= ( + Y7 53 ) Y16 )  ( <= ( + Y16 3 ) Y7 )  )
( or ( <= ( + X7 12 ) X17 )  ( <= ( + X17 28 ) X7 )  ( <= ( + Y7 53 ) Y17 )  ( <= ( + Y17 11 ) Y7 )  )
( or ( <= ( + X8 5 ) X9 )  ( <= ( + X9 26 ) X8 )  ( <= ( + Y8 83 ) Y9 )  ( <= ( + Y9 20 ) Y8 )  )
( or ( <= ( + X8 5 ) X10 )  ( <= ( + X10 44 ) X8 )  ( <= ( + Y8 83 ) Y10 )  ( <= ( + Y10 48 ) Y8 )  )
( or ( <= ( + X8 5 ) X11 )  ( <= ( + X11 75 ) X8 )  ( <= ( + Y8 83 ) Y11 )  ( <= ( + Y11 27 ) Y8 )  )
( or ( <= ( + X8 5 ) X12 )  ( <= ( + X12 81 ) X8 )  ( <= ( + Y8 83 ) Y12 )  ( <= ( + Y12 51 ) Y8 )  )
( or ( <= ( + X8 5 ) X13 )  ( <= ( + X13 13 ) X8 )  ( <= ( + Y8 83 ) Y13 )  ( <= ( + Y13 78 ) Y8 )  )
( or ( <= ( + X8 5 ) X14 )  ( <= ( + X14 59 ) X8 )  ( <= ( + Y8 83 ) Y14 )  ( <= ( + Y14 91 ) Y8 )  )
( or ( <= ( + X8 5 ) X15 )  ( <= ( + X15 46 ) X8 )  ( <= ( + Y8 83 ) Y15 )  ( <= ( + Y15 82 ) Y8 )  )
( or ( <= ( + X8 5 ) X16 )  ( <= ( + X16 69 ) X8 )  ( <= ( + Y8 83 ) Y16 )  ( <= ( + Y16 3 ) Y8 )  )
( or ( <= ( + X8 5 ) X17 )  ( <= ( + X17 28 ) X8 )  ( <= ( + Y8 83 ) Y17 )  ( <= ( + Y17 11 ) Y8 )  )
( or ( <= ( + X9 26 ) X10 )  ( <= ( + X10 44 ) X9 )  ( <= ( + Y9 20 ) Y10 )  ( <= ( + Y10 48 ) Y9 )  )
( or ( <= ( + X9 26 ) X11 )  ( <= ( + X11 75 ) X9 )  ( <= ( + Y9 20 ) Y11 )  ( <= ( + Y11 27 ) Y9 )  )
( or ( <= ( + X9 26 ) X12 )  ( <= ( + X12 81 ) X9 )  ( <= ( + Y9 20 ) Y12 )  ( <= ( + Y12 51 ) Y9 )  )
( or ( <= ( + X9 26 ) X13 )  ( <= ( + X13 13 ) X9 )  ( <= ( + Y9 20 ) Y13 )  ( <= ( + Y13 78 ) Y9 )  )
( or ( <= ( + X9 26 ) X14 )  ( <= ( + X14 59 ) X9 )  ( <= ( + Y9 20 ) Y14 )  ( <= ( + Y14 91 ) Y9 )  )
( or ( <= ( + X9 26 ) X15 )  ( <= ( + X15 46 ) X9 )  ( <= ( + Y9 20 ) Y15 )  ( <= ( + Y15 82 ) Y9 )  )
( or ( <= ( + X9 26 ) X16 )  ( <= ( + X16 69 ) X9 )  ( <= ( + Y9 20 ) Y16 )  ( <= ( + Y16 3 ) Y9 )  )
( or ( <= ( + X9 26 ) X17 )  ( <= ( + X17 28 ) X9 )  ( <= ( + Y9 20 ) Y17 )  ( <= ( + Y17 11 ) Y9 )  )
( or ( <= ( + X10 44 ) X11 )  ( <= ( + X11 75 ) X10 )  ( <= ( + Y10 48 ) Y11 )  ( <= ( + Y11 27 ) Y10 )  )
( or ( <= ( + X10 44 ) X12 )  ( <= ( + X12 81 ) X10 )  ( <= ( + Y10 48 ) Y12 )  ( <= ( + Y12 51 ) Y10 )  )
( or ( <= ( + X10 44 ) X13 )  ( <= ( + X13 13 ) X10 )  ( <= ( + Y10 48 ) Y13 )  ( <= ( + Y13 78 ) Y10 )  )
( or ( <= ( + X10 44 ) X14 )  ( <= ( + X14 59 ) X10 )  ( <= ( + Y10 48 ) Y14 )  ( <= ( + Y14 91 ) Y10 )  )
( or ( <= ( + X10 44 ) X15 )  ( <= ( + X15 46 ) X10 )  ( <= ( + Y10 48 ) Y15 )  ( <= ( + Y15 82 ) Y10 )  )
( or ( <= ( + X10 44 ) X16 )  ( <= ( + X16 69 ) X10 )  ( <= ( + Y10 48 ) Y16 )  ( <= ( + Y16 3 ) Y10 )  )
( or ( <= ( + X10 44 ) X17 )  ( <= ( + X17 28 ) X10 )  ( <= ( + Y10 48 ) Y17 )  ( <= ( + Y17 11 ) Y10 )  )
( or ( <= ( + X11 75 ) X12 )  ( <= ( + X12 81 ) X11 )  ( <= ( + Y11 27 ) Y12 )  ( <= ( + Y12 51 ) Y11 )  )
( or ( <= ( + X11 75 ) X13 )  ( <= ( + X13 13 ) X11 )  ( <= ( + Y11 27 ) Y13 )  ( <= ( + Y13 78 ) Y11 )  )
( or ( <= ( + X11 75 ) X14 )  ( <= ( + X14 59 ) X11 )  ( <= ( + Y11 27 ) Y14 )  ( <= ( + Y14 91 ) Y11 )  )
( or ( <= ( + X11 75 ) X15 )  ( <= ( + X15 46 ) X11 )  ( <= ( + Y11 27 ) Y15 )  ( <= ( + Y15 82 ) Y11 )  )
( or ( <= ( + X11 75 ) X16 )  ( <= ( + X16 69 ) X11 )  ( <= ( + Y11 27 ) Y16 )  ( <= ( + Y16 3 ) Y11 )  )
( or ( <= ( + X11 75 ) X17 )  ( <= ( + X17 28 ) X11 )  ( <= ( + Y11 27 ) Y17 )  ( <= ( + Y17 11 ) Y11 )  )
( or ( <= ( + X12 81 ) X13 )  ( <= ( + X13 13 ) X12 )  ( <= ( + Y12 51 ) Y13 )  ( <= ( + Y13 78 ) Y12 )  )
( or ( <= ( + X12 81 ) X14 )  ( <= ( + X14 59 ) X12 )  ( <= ( + Y12 51 ) Y14 )  ( <= ( + Y14 91 ) Y12 )  )
( or ( <= ( + X12 81 ) X15 )  ( <= ( + X15 46 ) X12 )  ( <= ( + Y12 51 ) Y15 )  ( <= ( + Y15 82 ) Y12 )  )
( or ( <= ( + X12 81 ) X16 )  ( <= ( + X16 69 ) X12 )  ( <= ( + Y12 51 ) Y16 )  ( <= ( + Y16 3 ) Y12 )  )
( or ( <= ( + X12 81 ) X17 )  ( <= ( + X17 28 ) X12 )  ( <= ( + Y12 51 ) Y17 )  ( <= ( + Y17 11 ) Y12 )  )
( or ( <= ( + X13 13 ) X14 )  ( <= ( + X14 59 ) X13 )  ( <= ( + Y13 78 ) Y14 )  ( <= ( + Y14 91 ) Y13 )  )
( or ( <= ( + X13 13 ) X15 )  ( <= ( + X15 46 ) X13 )  ( <= ( + Y13 78 ) Y15 )  ( <= ( + Y15 82 ) Y13 )  )
( or ( <= ( + X13 13 ) X16 )  ( <= ( + X16 69 ) X13 )  ( <= ( + Y13 78 ) Y16 )  ( <= ( + Y16 3 ) Y13 )  )
( or ( <= ( + X13 13 ) X17 )  ( <= ( + X17 28 ) X13 )  ( <= ( + Y13 78 ) Y17 )  ( <= ( + Y17 11 ) Y13 )  )
( or ( <= ( + X14 59 ) X15 )  ( <= ( + X15 46 ) X14 )  ( <= ( + Y14 91 ) Y15 )  ( <= ( + Y15 82 ) Y14 )  )
( or ( <= ( + X14 59 ) X16 )  ( <= ( + X16 69 ) X14 )  ( <= ( + Y14 91 ) Y16 )  ( <= ( + Y16 3 ) Y14 )  )
( or ( <= ( + X14 59 ) X17 )  ( <= ( + X17 28 ) X14 )  ( <= ( + Y14 91 ) Y17 )  ( <= ( + Y17 11 ) Y14 )  )
( or ( <= ( + X15 46 ) X16 )  ( <= ( + X16 69 ) X15 )  ( <= ( + Y15 82 ) Y16 )  ( <= ( + Y16 3 ) Y15 )  )
( or ( <= ( + X15 46 ) X17 )  ( <= ( + X17 28 ) X15 )  ( <= ( + Y15 82 ) Y17 )  ( <= ( + Y17 11 ) Y15 )  )
( or ( <= ( + X16 69 ) X17 )  ( <= ( + X17 28 ) X16 )  ( <= ( + Y16 3 ) Y17 )  ( <= ( + Y17 11 ) Y16 )  )
( >= X0 0)
( <= ( + X0 31) Z)
( >= Y0 0)
( <= ( + Y0 2 ) 212)
( >= X1 0)
( <= ( + X1 65) Z)
( >= Y1 0)
( <= ( + Y1 82 ) 212)
( >= X2 0)
( <= ( + X2 80) Z)
( >= Y2 0)
( <= ( + Y2 31 ) 212)
( >= X3 0)
( <= ( + X3 74) Z)
( >= Y3 0)
( <= ( + Y3 14 ) 212)
( >= X4 0)
( <= ( + X4 68) Z)
( >= Y4 0)
( <= ( + Y4 96 ) 212)
( >= X5 0)
( <= ( + X5 60) Z)
( >= Y5 0)
( <= ( + Y5 24 ) 212)
( >= X6 0)
( <= ( + X6 61) Z)
( >= Y6 0)
( <= ( + Y6 3 ) 212)
( >= X7 0)
( <= ( + X7 12) Z)
( >= Y7 0)
( <= ( + Y7 53 ) 212)
( >= X8 0)
( <= ( + X8 5) Z)
( >= Y8 0)
( <= ( + Y8 83 ) 212)
( >= X9 0)
( <= ( + X9 26) Z)
( >= Y9 0)
( <= ( + Y9 20 ) 212)
( >= X10 0)
( <= ( + X10 44) Z)
( >= Y10 0)
( <= ( + Y10 48 ) 212)
( >= X11 0)
( <= ( + X11 75) Z)
( >= Y11 0)
( <= ( + Y11 27 ) 212)
( >= X12 0)
( <= ( + X12 81) Z)
( >= Y12 0)
( <= ( + Y12 51 ) 212)
( >= X13 0)
( <= ( + X13 13) Z)
( >= Y13 0)
( <= ( + Y13 78 ) 212)
( >= X14 0)
( <= ( + X14 59) Z)
( >= Y14 0)
( <= ( + Y14 91 ) 212)
( >= X15 0)
( <= ( + X15 46) Z)
( >= Y15 0)
( <= ( + Y15 82 ) 212)
( >= X16 0)
( <= ( + X16 69) Z)
( >= Y16 0)
( <= ( + Y16 3 ) 212)
( >= X17 0)
( <= ( + X17 28) Z)
( >= Y17 0)
( <= ( + Y17 11 ) 212)
) )
)(=> $phi $goal))))